# cnf whose VIG is a two level hierarchy, the two leaf communities are
# described by the first two clauses, where each leaf community has size 5
# the inter-community edges is described by the rest of the clause
p cnf 20 3
1 -2 -3 4 5 6 7 8 -9 10 0
11 -12 -13 -14 15 16 -17 18 -19 -20 0
1 2 0
